rcpsp/heur_output_bi_constraints/Log=1/heurj120.txt
encoding rcpsp/j120.sm/j12046_4.sm nv: 1340409 nc: 2993971 enctime: 38.63
encoding rcpsp/j120.sm/j12046_4.sm nv: 498278 nc: 1110117 enctime: 7.58
c File: j12046_4.smnaivebi1.wcnf
c timeout
c final solution cost: 179
c CPU time: 66.500341
s UNKNOWN

c File: j12046_4.smbi1.wcnf
c timeout
c final solution cost: 167
c CPU time: 61.296433
s UNKNOWN


rcpsp/heur_output_bi_constraints/Log=1/heurj120.txt
encoding rcpsp/j120.sm/j12046_5.sm nv: 1405488 nc: 3134128 enctime: 40.91
encoding rcpsp/j120.sm/j12046_5.sm nv: 508368 nc: 1130728 enctime: 9.12
c File: j12046_5.smnaivebi1.wcnf
c timeout
c final solution cost: 145
c CPU time: 66.536299
s UNKNOWN

c File: j12046_5.smbi1.wcnf
c timeout
c final solution cost: 147
c CPU time: 61.328664
s UNKNOWN


rcpsp/heur_output_bi_constraints/Log=1/heurj120.txt
encoding rcpsp/j120.sm/j12046_6.sm nv: 1184400 nc: 2628791 enctime: 32.58
encoding rcpsp/j120.sm/j12046_6.sm nv: 523110 nc: 1158811 enctime: 9.24
c File: j12046_6.smnaivebi1.wcnf
c timeout
c final solution cost: 170
c CPU time: 65.414448
s UNKNOWN

c File: j12046_6.smbi1.wcnf
c timeout
c final solution cost: 176
c CPU time: 61.450012
s UNKNOWN


rcpsp/heur_output_bi_constraints/Log=1/heurj120.txt
encoding rcpsp/j120.sm/j12046_7.sm nv: 1327656 nc: 2961769 enctime: 37.67
encoding rcpsp/j120.sm/j12046_7.sm nv: 457028 nc: 1016749 enctime: 6.93
c File: j12046_7.smnaivebi1.wcnf
c timeout
c final solution cost: 308
c CPU time: 65.930993
s UNKNOWN

c File: j12046_7.smbi1.wcnf
c timeout
c final solution cost: 164
c CPU time: 61.110354
s UNKNOWN


rcpsp/heur_output_bi_constraints/Log=1/heurj120.txt
encoding rcpsp/j120.sm/j12046_8.sm nv: 1295160 nc: 2898680 enctime: 37.21
encoding rcpsp/j120.sm/j12046_8.sm nv: 538144 nc: 1201803 enctime: 9.72
c File: j12046_8.smnaivebi1.wcnf
c timeout
c final solution cost: 168
c CPU time: 66.131969
s UNKNOWN

c File: j12046_8.smbi1.wcnf
c timeout
c final solution cost: 166
c CPU time: 61.507690
s UNKNOWN


rcpsp/heur_output_bi_constraints/Log=1/heurj120.txt
encoding rcpsp/j120.sm/j12046_9.sm nv: 1415400 nc: 3171794 enctime: 39.92
encoding rcpsp/j120.sm/j12046_9.sm nv: 466200 nc: 1041518 enctime: 8.26
c File: j12046_9.smnaivebi1.wcnf
c timeout
c final solution cost: 161
c CPU time: 66.793189
s UNKNOWN

c File: j12046_9.smbi1.wcnf
c timeout
c final solution cost: 162
c CPU time: 61.126986
s UNKNOWN


rcpsp/heur_output_bi_constraints/Log=1/heurj120.txt
encoding rcpsp/j120.sm/j1204_6.sm nv: 937764 nc: 2169987 enctime: 27.03
encoding rcpsp/j120.sm/j1204_6.sm nv: 109680 nc: 249871 enctime: 1.92
c File: j1204_6.smnaivebi1.wcnf
c timeout
c final solution cost: 303
c CPU time: 65.133249
s UNKNOWN

c File: j1204_6.smbi1.wcnf
c timeout
c final solution cost: 61
c CPU time: 60.200032
s UNKNOWN


rcpsp/heur_output_bi_constraints/Log=1/heurj120.txt
encoding rcpsp/j120.sm/j12047_10.sm nv: 1963080 nc: 4264589 enctime: 48.65
encoding rcpsp/j120.sm/j12047_10.sm nv: 539560 nc: 1168557 enctime: 9.34
c File: j12047_10.smnaivebi1.wcnf
c timeout
c final solution cost: 124
c CPU time: 67.686855
s UNKNOWN

c File: j12047_10.smbi1.wcnf
c timeout
c final solution cost: 120
c CPU time: 61.144693
s UNKNOWN


rcpsp/heur_output_bi_constraints/Log=1/heurj120.txt
encoding rcpsp/j120.sm/j12047_1.sm nv: 1621710 nc: 3569186 enctime: 43.77
encoding rcpsp/j120.sm/j12047_1.sm nv: 469955 nc: 1031068 enctime: 8.28
c File: j12047_1.smnaivebi1.wcnf
c timeout
c final solution cost: 132
c CPU time: 67.000178
s UNKNOWN

c File: j12047_1.smbi1.wcnf
c timeout
c final solution cost: 134
c CPU time: 61.041921
s UNKNOWN


rcpsp/heur_output_bi_constraints/Log=1/heurj120.txt
encoding rcpsp/j120.sm/j12047_2.sm nv: 1737386 nc: 3768779 enctime: 44.42
encoding rcpsp/j120.sm/j12047_2.sm nv: 507976 nc: 1098839 enctime: 7.27
c File: j12047_2.smnaivebi1.wcnf
c timeout
c final solution cost: 203
c CPU time: 66.758040
s UNKNOWN

c File: j12047_2.smbi1.wcnf
c timeout
c final solution cost: 121
c CPU time: 61.068617
s UNKNOWN


rcpsp/heur_output_bi_constraints/Log=1/heurj120.txt
encoding rcpsp/j120.sm/j12047_3.sm nv: 2084418 nc: 4525283 enctime: 53.27
encoding rcpsp/j120.sm/j12047_3.sm nv: 465192 nc: 1006100 enctime: 6.71
c File: j12047_3.smnaivebi1.wcnf
c timeout
c final solution cost: 221
c CPU time: 67.798280
s UNKNOWN

c File: j12047_3.smbi1.wcnf
c timeout
c final solution cost: 115
c CPU time: 60.895417
s UNKNOWN


rcpsp/heur_output_bi_constraints/Log=1/heurj120.txt
encoding rcpsp/j120.sm/j12047_4.sm nv: 1708686 nc: 3708166 enctime: 43.06
encoding rcpsp/j120.sm/j12047_4.sm nv: 465276 nc: 1006516 enctime: 6.47
c File: j12047_4.smnaivebi1.wcnf
c timeout
c final solution cost: 486
c CPU time: 66.591861
s UNKNOWN

c File: j12047_4.smbi1.wcnf
c timeout
c final solution cost: 120
c CPU time: 60.949354
s UNKNOWN


rcpsp/heur_output_bi_constraints/Log=1/heurj120.txt
encoding rcpsp/j120.sm/j12047_5.sm nv: 1702197 nc: 3717499 enctime: 45.11
encoding rcpsp/j120.sm/j12047_5.sm nv: 470106 nc: 1023403 enctime: 8.21
c File: j12047_5.smnaivebi1.wcnf
c timeout
c final solution cost: 233
c CPU time: 66.974976
s UNKNOWN

c File: j12047_5.smbi1.wcnf
c timeout
c final solution cost: 124
c CPU time: 60.982188
s UNKNOWN


rcpsp/heur_output_bi_constraints/Log=1/heurj120.txt
encoding rcpsp/j120.sm/j12047_6.sm nv: 1778394 nc: 3894313 enctime: 47.88
encoding rcpsp/j120.sm/j12047_6.sm nv: 550830 nc: 1202845 enctime: 9.53
c File: j12047_6.smnaivebi1.wcnf
c timeout
c final solution cost: 287
c CPU time: 67.713531
s UNKNOWN

c File: j12047_6.smbi1.wcnf
c timeout
c final solution cost: 128
c CPU time: 61.288852
s UNKNOWN


rcpsp/heur_output_bi_constraints/Log=1/heurj120.txt
encoding rcpsp/j120.sm/j12047_7.sm nv: 1937552 nc: 4190626 enctime: 48.69
encoding rcpsp/j120.sm/j12047_7.sm nv: 475634 nc: 1025308 enctime: 6.70
c File: j12047_7.smnaivebi1.wcnf
c timeout
c final solution cost: 112
c CPU time: 67.342845
s UNKNOWN

c File: j12047_7.smbi1.wcnf
c timeout
c final solution cost: 111
c CPU time: 60.947634
s UNKNOWN


rcpsp/heur_output_bi_constraints/Log=1/heurj120.txt
encoding rcpsp/j120.sm/j12047_8.sm nv: 1645248 nc: 3601557 enctime: 43.65
encoding rcpsp/j120.sm/j12047_8.sm nv: 446424 nc: 973991 enctime: 6.53
c File: j12047_8.smnaivebi1.wcnf
c timeout
c final solution cost: 389
c CPU time: 66.860011
s UNKNOWN

c File: j12047_8.smbi1.wcnf
c timeout
c final solution cost: 133
c CPU time: 60.959822
s UNKNOWN


rcpsp/heur_output_bi_constraints/Log=1/heurj120.txt
encoding rcpsp/j120.sm/j12047_9.sm nv: 1740069 nc: 3806074 enctime: 48.42
encoding rcpsp/j120.sm/j12047_9.sm nv: 541008 nc: 1180218 enctime: 7.98
c File: j12047_9.smnaivebi1.wcnf
c timeout
c final solution cost: 147
c CPU time: 67.009433
s UNKNOWN

c File: j12047_9.smbi1.wcnf
c timeout
c final solution cost: 138
c CPU time: 61.222746
s UNKNOWN


rcpsp/heur_output_bi_constraints/Log=1/heurj120.txt
encoding rcpsp/j120.sm/j1204_7.sm nv: 976800 nc: 2218774 enctime: 28.66
encoding rcpsp/j120.sm/j1204_7.sm nv: 109520 nc: 245126 enctime: 1.10
c File: j1204_7.smnaivebi1.wcnf
c timeout
c final solution cost: 54
c CPU time: 64.811107
s UNKNOWN

c File: j1204_7.smbi1.wcnf
c timeout
c final solution cost: 53
c CPU time: 60.203390
s UNKNOWN


rcpsp/heur_output_bi_constraints/Log=1/heurj120.txt
encoding rcpsp/j120.sm/j12048_10.sm nv: 1730736 nc: 3718816 enctime: 42.86
encoding rcpsp/j120.sm/j12048_10.sm nv: 401576 nc: 859806 enctime: 5.76
c File: j12048_10.smnaivebi1.wcnf
c timeout
c final solution cost: 119
c CPU time: 66.292856
s UNKNOWN

c File: j12048_10.smbi1.wcnf
c timeout
c final solution cost: 100
c CPU time: 60.785425
s UNKNOWN


rcpsp/heur_output_bi_constraints/Log=1/heurj120.txt
encoding rcpsp/j120.sm/j12048_1.sm nv: 2103680 nc: 4491677 enctime: 50.46
encoding rcpsp/j120.sm/j12048_1.sm nv: 407588 nc: 866777 enctime: 5.76
c File: j12048_1.smnaivebi1.wcnf
c timeout
c final solution cost: 90
c CPU time: 67.225650
s UNKNOWN

c File: j12048_1.smbi1.wcnf
c timeout
c final solution cost: 91
c CPU time: 60.723721
s UNKNOWN


rcpsp/heur_output_bi_constraints/Log=1/heurj120.txt
encoding rcpsp/j120.sm/j12048_2.sm nv: 1947824 nc: 4172783 enctime: 46.73
encoding rcpsp/j120.sm/j12048_2.sm nv: 446890 nc: 954200 enctime: 6.33
c File: j12048_2.smnaivebi1.wcnf
c timeout
c final solution cost: 360
c CPU time: 66.853649
s UNKNOWN

c File: j12048_2.smbi1.wcnf
c timeout
c final solution cost: 107
c CPU time: 60.841125
s UNKNOWN


rcpsp/heur_output_bi_constraints/Log=1/heurj120.txt
encoding rcpsp/j120.sm/j12048_3.sm nv: 2252316 nc: 4829221 enctime: 54.06
encoding rcpsp/j120.sm/j12048_3.sm nv: 488334 nc: 1043191 enctime: 6.75
c File: j12048_3.smnaivebi1.wcnf
c timeout
c CPU time: 67.276775
s UNKNOWN

c File: j12048_3.smbi1.wcnf
c timeout
c final solution cost: 104
c CPU time: 60.914620
s UNKNOWN


rcpsp/heur_output_bi_constraints/Log=1/heurj120.txt
encoding rcpsp/j120.sm/j12048_4.sm nv: 2224416 nc: 4795389 enctime: 55.18
encoding rcpsp/j120.sm/j12048_4.sm nv: 527340 nc: 1133082 enctime: 7.51
c File: j12048_4.smnaivebi1.wcnf
c timeout
c final solution cost: 179
c CPU time: 68.326101
s UNKNOWN

c File: j12048_4.smbi1.wcnf
c timeout
c final solution cost: 122
c CPU time: 61.035857
s UNKNOWN


rcpsp/heur_output_bi_constraints/Log=1/heurj120.txt
encoding rcpsp/j120.sm/j12048_5.sm nv: 2285970 nc: 4912164 enctime: 55.87
encoding rcpsp/j120.sm/j12048_5.sm nv: 417438 nc: 893100 enctime: 5.96
c File: j12048_5.smnaivebi1.wcnf
c timeout
c final solution cost: 106
c CPU time: 68.220457
s UNKNOWN

c File: j12048_5.smbi1.wcnf
c timeout
c final solution cost: 97
c CPU time: 60.740617
s UNKNOWN


rcpsp/heur_output_bi_constraints/Log=1/heurj120.txt
encoding rcpsp/j120.sm/j12048_6.sm nv: 2385580 nc: 5073595 enctime: 54.94
encoding rcpsp/j120.sm/j12048_6.sm nv: 485080 nc: 1027945 enctime: 6.75
c File: j12048_6.smnaivebi1.wcnf
c timeout
c final solution cost: 91
c CPU time: 67.842006
s UNKNOWN

c File: j12048_6.smbi1.wcnf
c timeout
c final solution cost: 88
c CPU time: 60.860867
s UNKNOWN


rcpsp/heur_output_bi_constraints/Log=1/heurj120.txt
encoding rcpsp/j120.sm/j12048_7.sm nv: 2226709 nc: 4735226 enctime: 50.50
encoding rcpsp/j120.sm/j12048_7.sm nv: 425949 nc: 902306 enctime: 5.84
c File: j12048_7.smnaivebi1.wcnf
c timeout
c final solution cost: 88
c CPU time: 67.281891
s UNKNOWN

c File: j12048_7.smbi1.wcnf
c timeout
c final solution cost: 88
c CPU time: 60.736872
s UNKNOWN


rcpsp/heur_output_bi_constraints/Log=1/heurj120.txt
encoding rcpsp/j120.sm/j12048_8.sm nv: 1861646 nc: 3989755 enctime: 44.30
encoding rcpsp/j120.sm/j12048_8.sm nv: 439971 nc: 939780 enctime: 6.04
c File: j12048_8.smnaivebi1.wcnf
c timeout
c final solution cost: 182
c CPU time: 66.462217
s UNKNOWN

c File: j12048_8.smbi1.wcnf
c timeout
c final solution cost: 92
c CPU time: 60.829472
s UNKNOWN


rcpsp/heur_output_bi_constraints/Log=1/heurj120.txt
encoding rcpsp/j120.sm/j12048_9.sm nv: 2104362 nc: 4519868 enctime: 50.53
encoding rcpsp/j120.sm/j12048_9.sm nv: 460230 nc: 985036 enctime: 6.39
c File: j12048_9.smnaivebi1.wcnf
c timeout
c final solution cost: 103
c CPU time: 67.514668
s UNKNOWN

c File: j12048_9.smbi1.wcnf
c timeout
c final solution cost: 103
c CPU time: 60.838780
s UNKNOWN


rcpsp/heur_output_bi_constraints/Log=1/heurj120.txt
encoding rcpsp/j120.sm/j1204_8.sm nv: 1018578 nc: 2309361 enctime: 27.58
encoding rcpsp/j120.sm/j1204_8.sm nv: 106260 nc: 237113 enctime: 1.04
c File: j1204_8.smnaivebi1.wcnf
c timeout
c final solution cost: 49
c CPU time: 64.721335
s UNKNOWN

c File: j1204_8.smbi1.wcnf
c timeout
c final solution cost: 49
c CPU time: 60.187112
s UNKNOWN


rcpsp/heur_output_bi_constraints/Log=1/heurj120.txt
encoding rcpsp/j120.sm/j12049_10.sm nv: 2352288 nc: 4986605 enctime: 51.45
encoding rcpsp/j120.sm/j12049_10.sm nv: 439680 nc: 928577 enctime: 5.76
c File: j12049_10.smnaivebi1.wcnf
c timeout
c final solution cost: 82
c CPU time: 67.441385
s UNKNOWN

c File: j12049_10.smbi1.wcnf
c timeout
c final solution cost: 82
c CPU time: 60.715664
s UNKNOWN


rcpsp/heur_output_bi_constraints/Log=1/heurj120.txt
encoding rcpsp/j120.sm/j12049_1.sm nv: 2514876 nc: 5267617 enctime: 50.51
encoding rcpsp/j120.sm/j12049_1.sm nv: 407484 nc: 850081 enctime: 5.45
c File: j12049_1.smnaivebi1.wcnf
c optimal
c final solution cost: 77
c CPU time: 20.008255
s OPTIMUM FOUND

c File: j12049_1.smbi1.wcnf
c optimal
c final solution cost: 77
c CPU time: 3.278050
s OPTIMUM FOUND


rcpsp/heur_output_bi_constraints/Log=1/heurj120.txt
encoding rcpsp/j120.sm/j12049_2.sm nv: 2264465 nc: 4854233 enctime: 52.62
encoding rcpsp/j120.sm/j12049_2.sm nv: 500250 nc: 1068709 enctime: 6.72
c File: j12049_2.smnaivebi1.wcnf
c timeout
c final solution cost: 95
c CPU time: 67.615295
s UNKNOWN

c File: j12049_2.smbi1.wcnf
c timeout
c final solution cost: 93
c CPU time: 60.900290
s UNKNOWN


rcpsp/heur_output_bi_constraints/Log=1/heurj120.txt
encoding rcpsp/j120.sm/j12049_3.sm nv: 2718848 nc: 5783218 enctime: 60.31
encoding rcpsp/j120.sm/j12049_3.sm nv: 482750 nc: 1022680 enctime: 11.33
c File: j12049_3.smnaivebi1.wcnf
c timeout
c final solution cost: 102
c CPU time: 72.951734
s UNKNOWN

c File: j12049_3.smbi1.wcnf
c timeout
c final solution cost: 83
c CPU time: 61.148606
s UNKNOWN


rcpsp/heur_output_bi_constraints/Log=1/heurj120.txt
encoding rcpsp/j120.sm/j12049_4.sm nv: 2658805 nc: 5589727 enctime: 98.76
encoding rcpsp/j120.sm/j12049_4.sm nv: 479660 nc: 1004827 enctime: 10.36
c File: j12049_4.smnaivebi1.wcnf
c timeout
c final solution cost: 116
c CPU time: 71.329236
s UNKNOWN

c File: j12049_4.smbi1.wcnf
c timeout
c final solution cost: 83
c CPU time: 61.223328
s UNKNOWN


rcpsp/heur_output_bi_constraints/Log=1/heurj120.txt
encoding rcpsp/j120.sm/j12049_5.sm nv: 2056752 nc: 4301341 enctime: 67.75
encoding rcpsp/j120.sm/j12049_5.sm nv: 406134 nc: 846384 enctime: 11.30
c File: j12049_5.smnaivebi1.wcnf
c timeout
c final solution cost: 76
c CPU time: 68.096920
s UNKNOWN

c File: j12049_5.smbi1.wcnf
c timeout
c final solution cost: 74
c CPU time: 61.244802
s UNKNOWN


rcpsp/heur_output_bi_constraints/Log=1/heurj120.txt
encoding rcpsp/j120.sm/j12049_6.sm nv: 2370306 nc: 5054079 enctime: 91.83
encoding rcpsp/j120.sm/j12049_6.sm nv: 468426 nc: 994899 enctime: 10.06
c File: j12049_6.smnaivebi1.wcnf
c timeout
c final solution cost: 98
c CPU time: 71.553368
s UNKNOWN

c File: j12049_6.smbi1.wcnf
c timeout
c final solution cost: 92
c CPU time: 61.146884
s UNKNOWN


rcpsp/heur_output_bi_constraints/Log=1/heurj120.txt
encoding rcpsp/j120.sm/j12049_7.sm nv: 2522595 nc: 5320688 enctime: 93.95
encoding rcpsp/j120.sm/j12049_7.sm nv: 488875 nc: 1027568 enctime: 7.62
c File: j12049_7.smnaivebi1.wcnf
c timeout
c final solution cost: 86
c CPU time: 70.813217
s UNKNOWN

c File: j12049_7.smbi1.wcnf
c timeout
c final solution cost: 84
c CPU time: 61.466817
s UNKNOWN


rcpsp/heur_output_bi_constraints/Log=1/heurj120.txt
encoding rcpsp/j120.sm/j12049_8.sm nv: 2238418 nc: 4808752 enctime: 89.97
encoding rcpsp/j120.sm/j12049_8.sm nv: 535132 nc: 1145878 enctime: 10.71
c File: j12049_8.smnaivebi1.wcnf
c timeout
c final solution cost: 102
c CPU time: 71.367084
s UNKNOWN

c File: j12049_8.smbi1.wcnf
c timeout
c final solution cost: 101
c CPU time: 61.600882
s UNKNOWN


rcpsp/heur_output_bi_constraints/Log=1/heurj120.txt
encoding rcpsp/j120.sm/j12049_9.sm nv: 2657220 nc: 5615949 enctime: 96.16
encoding rcpsp/j120.sm/j12049_9.sm nv: 404532 nc: 850997 enctime: 9.34
c File: j12049_9.smnaivebi1.wcnf
c timeout
c final solution cost: 81
c CPU time: 71.683272
s UNKNOWN

c File: j12049_9.smbi1.wcnf
c timeout
c final solution cost: 81
c CPU time: 60.972795
s UNKNOWN


rcpsp/heur_output_bi_constraints/Log=1/heurj120.txt
encoding rcpsp/j120.sm/j1204_9.sm nv: 899580 nc: 2040215 enctime: 38.91
encoding rcpsp/j120.sm/j1204_9.sm nv: 102930 nc: 229955 enctime: 2.96
c File: j1204_9.smnaivebi1.wcnf
c timeout
c final solution cost: 503
c CPU time: 66.277365
s UNKNOWN

c File: j1204_9.smbi1.wcnf
c timeout
c final solution cost: 53
c CPU time: 60.322227
s UNKNOWN


